47575.01,58.11,70.47
43551.5,63.48,76.98
51704.16,53.47,64.84
43155.87,64.06,77.69
53482.92,51.69,62.69
45683.92,60.52,73.39
59593.14,46.39,56.26
47583.41,58.1,70.46
44747.54,61.78,74.92
46555.44,59.38,72.01
41214.35,67.08,81.34
45992.57,60.11,72.89
52331.32,52.83,64.07
44832.55,61.66,74.78
49154.35,56.24,68.21
56087.61,49.29,59.78
49242.22,56.14,68.08
46623.92,59.3,71.91
49829.86,55.48,67.28
55265.55,50.02,60.66
